p cnf 336 1712
1 2 3 4 0
-1 97 0
-2 97 0
-1 -2 98 0
-3 99 0
-4 99 0
-3 -4 100 0
-97 101 0
-99 101 0
-97 -99 102 0
-98 103 0
-100 103 0
-98 -100 104 0
-102 105 0
-103 105 0
-102 -103 106 0
-105 0
25 26 27 28 0
-25 107 0
-26 107 0
-25 -26 108 0
-27 109 0
-28 109 0
-27 -28 110 0
-107 111 0
-109 111 0
-107 -109 112 0
-108 113 0
-110 113 0
-108 -110 114 0
-112 115 0
-113 115 0
-112 -113 116 0
-115 0
49 50 51 52 0
-49 117 0
-50 117 0
-49 -50 118 0
-51 119 0
-52 119 0
-51 -52 120 0
-117 121 0
-119 121 0
-117 -119 122 0
-118 123 0
-120 123 0
-118 -120 124 0
-122 125 0
-123 125 0
-122 -123 126 0
-125 0
73 74 75 76 0
-73 127 0
-74 127 0
-73 -74 128 0
-75 129 0
-76 129 0
-75 -76 130 0
-127 131 0
-129 131 0
-127 -129 132 0
-128 133 0
-130 133 0
-128 -130 134 0
-132 135 0
-133 135 0
-132 -133 136 0
-135 0
5 6 7 8 0
-5 137 0
-6 137 0
-5 -6 138 0
-7 139 0
-8 139 0
-7 -8 140 0
-137 141 0
-139 141 0
-137 -139 142 0
-138 143 0
-140 143 0
-138 -140 144 0
-142 145 0
-143 145 0
-142 -143 146 0
-145 0
29 30 31 32 0
-29 147 0
-30 147 0
-29 -30 148 0
-31 149 0
-32 149 0
-31 -32 150 0
-147 151 0
-149 151 0
-147 -149 152 0
-148 153 0
-150 153 0
-148 -150 154 0
-152 155 0
-153 155 0
-152 -153 156 0
-155 0
53 54 55 56 0
-53 157 0
-54 157 0
-53 -54 158 0
-55 159 0
-56 159 0
-55 -56 160 0
-157 161 0
-159 161 0
-157 -159 162 0
-158 163 0
-160 163 0
-158 -160 164 0
-162 165 0
-163 165 0
-162 -163 166 0
-165 0
77 78 79 80 0
-77 167 0
-78 167 0
-77 -78 168 0
-79 169 0
-80 169 0
-79 -80 170 0
-167 171 0
-169 171 0
-167 -169 172 0
-168 173 0
-170 173 0
-168 -170 174 0
-172 175 0
-173 175 0
-172 -173 176 0
-175 0
9 10 11 12 0
-9 177 0
-10 177 0
-9 -10 178 0
-11 179 0
-12 179 0
-11 -12 180 0
-177 181 0
-179 181 0
-177 -179 182 0
-178 183 0
-180 183 0
-178 -180 184 0
-182 185 0
-183 185 0
-182 -183 186 0
-185 0
33 34 35 36 0
-33 187 0
-34 187 0
-33 -34 188 0
-35 189 0
-36 189 0
-35 -36 190 0
-187 191 0
-189 191 0
-187 -189 192 0
-188 193 0
-190 193 0
-188 -190 194 0
-192 195 0
-193 195 0
-192 -193 196 0
-195 0
57 58 59 60 0
-57 197 0
-58 197 0
-57 -58 198 0
-59 199 0
-60 199 0
-59 -60 200 0
-197 201 0
-199 201 0
-197 -199 202 0
-198 203 0
-200 203 0
-198 -200 204 0
-202 205 0
-203 205 0
-202 -203 206 0
-205 0
81 82 83 84 0
-81 207 0
-82 207 0
-81 -82 208 0
-83 209 0
-84 209 0
-83 -84 210 0
-207 211 0
-209 211 0
-207 -209 212 0
-208 213 0
-210 213 0
-208 -210 214 0
-212 215 0
-213 215 0
-212 -213 216 0
-215 0
13 14 15 16 0
-13 217 0
-14 217 0
-13 -14 218 0
-15 219 0
-16 219 0
-15 -16 220 0
-217 221 0
-219 221 0
-217 -219 222 0
-218 223 0
-220 223 0
-218 -220 224 0
-222 225 0
-223 225 0
-222 -223 226 0
-225 0
37 38 39 40 0
-37 227 0
-38 227 0
-37 -38 228 0
-39 229 0
-40 229 0
-39 -40 230 0
-227 231 0
-229 231 0
-227 -229 232 0
-228 233 0
-230 233 0
-228 -230 234 0
-232 235 0
-233 235 0
-232 -233 236 0
-235 0
61 62 63 64 0
-61 237 0
-62 237 0
-61 -62 238 0
-63 239 0
-64 239 0
-63 -64 240 0
-237 241 0
-239 241 0
-237 -239 242 0
-238 243 0
-240 243 0
-238 -240 244 0
-242 245 0
-243 245 0
-242 -243 246 0
-245 0
85 86 87 88 0
-85 247 0
-86 247 0
-85 -86 248 0
-87 249 0
-88 249 0
-87 -88 250 0
-247 251 0
-249 251 0
-247 -249 252 0
-248 253 0
-250 253 0
-248 -250 254 0
-252 255 0
-253 255 0
-252 -253 256 0
-255 0
17 18 19 20 0
-17 257 0
-18 257 0
-17 -18 258 0
-19 259 0
-20 259 0
-19 -20 260 0
-257 261 0
-259 261 0
-257 -259 262 0
-258 263 0
-260 263 0
-258 -260 264 0
-262 265 0
-263 265 0
-262 -263 266 0
-265 0
41 42 43 44 0
-41 267 0
-42 267 0
-41 -42 268 0
-43 269 0
-44 269 0
-43 -44 270 0
-267 271 0
-269 271 0
-267 -269 272 0
-268 273 0
-270 273 0
-268 -270 274 0
-272 275 0
-273 275 0
-272 -273 276 0
-275 0
65 66 67 68 0
-65 277 0
-66 277 0
-65 -66 278 0
-67 279 0
-68 279 0
-67 -68 280 0
-277 281 0
-279 281 0
-277 -279 282 0
-278 283 0
-280 283 0
-278 -280 284 0
-282 285 0
-283 285 0
-282 -283 286 0
-285 0
89 90 91 92 0
-89 287 0
-90 287 0
-89 -90 288 0
-91 289 0
-92 289 0
-91 -92 290 0
-287 291 0
-289 291 0
-287 -289 292 0
-288 293 0
-290 293 0
-288 -290 294 0
-292 295 0
-293 295 0
-292 -293 296 0
-295 0
21 22 23 24 0
-21 297 0
-22 297 0
-21 -22 298 0
-23 299 0
-24 299 0
-23 -24 300 0
-297 301 0
-299 301 0
-297 -299 302 0
-298 303 0
-300 303 0
-298 -300 304 0
-302 305 0
-303 305 0
-302 -303 306 0
-305 0
45 46 47 48 0
-45 307 0
-46 307 0
-45 -46 308 0
-47 309 0
-48 309 0
-47 -48 310 0
-307 311 0
-309 311 0
-307 -309 312 0
-308 313 0
-310 313 0
-308 -310 314 0
-312 315 0
-313 315 0
-312 -313 316 0
-315 0
69 70 71 72 0
-69 317 0
-70 317 0
-69 -70 318 0
-71 319 0
-72 319 0
-71 -72 320 0
-317 321 0
-319 321 0
-317 -319 322 0
-318 323 0
-320 323 0
-318 -320 324 0
-322 325 0
-323 325 0
-322 -323 326 0
-325 0
93 94 95 96 0
-93 327 0
-94 327 0
-93 -94 328 0
-95 329 0
-96 329 0
-95 -96 330 0
-327 331 0
-329 331 0
-327 -329 332 0
-328 333 0
-330 333 0
-328 -330 334 0
-332 335 0
-333 335 0
-332 -333 336 0
-335 0
-1 -25 -73 6 0
-1 -26 -73 6 0
-1 -27 -73 6 0
-1 -28 -73 6 0
-1 -25 -74 6 0
-1 -26 -74 6 0
-1 -27 -74 6 0
-1 -28 -74 6 0
-1 -25 -75 6 0
-1 -26 -75 6 0
-1 -27 -75 6 0
-1 -28 -75 6 0
-1 -25 -76 6 0
-1 -26 -76 6 0
-1 -27 -76 6 0
-1 -28 -76 6 0
-2 -25 -73 6 0
-2 -26 -73 6 0
-2 -27 -73 6 0
-2 -28 -73 6 0
-2 -25 -74 6 0
-2 -26 -74 7 0
-2 -27 -74 7 0
-2 -28 -74 7 0
-2 -25 -75 6 0
-2 -26 -75 7 0
-2 -27 -75 7 0
-2 -28 -75 7 0
-2 -25 -76 6 0
-2 -26 -76 7 0
-2 -27 -76 7 0
-2 -28 -76 7 0
-3 -25 -73 6 0
-3 -26 -73 6 0
-3 -27 -73 6 0
-3 -28 -73 6 0
-3 -25 -74 6 0
-3 -26 -74 7 0
-3 -27 -74 7 0
-3 -28 -74 7 0
-3 -25 -75 6 0
-3 -26 -75 7 0
-3 -27 -75 8 0
-3 -28 -75 8 0
-3 -25 -76 6 0
-3 -26 -76 7 0
-3 -27 -76 8 0
-3 -28 -76 8 0
-4 -25 -73 6 0
-4 -26 -73 6 0
-4 -27 -73 6 0
-4 -28 -73 6 0
-4 -25 -74 6 0
-4 -26 -74 7 0
-4 -27 -74 7 0
-4 -28 -74 7 0
-4 -25 -75 6 0
-4 -26 -75 7 0
-4 -27 -75 8 0
-4 -28 -75 8 0
-4 -25 -76 6 0
-4 -26 -76 7 0
-4 -27 -76 8 0
-4 -28 -76 5 0
-25 -1 -49 30 0
-25 -2 -49 30 0
-25 -3 -49 30 0
-25 -4 -49 30 0
-25 -1 -50 30 0
-25 -2 -50 30 0
-25 -3 -50 30 0
-25 -4 -50 30 0
-25 -1 -51 30 0
-25 -2 -51 30 0
-25 -3 -51 30 0
-25 -4 -51 30 0
-25 -1 -52 30 0
-25 -2 -52 30 0
-25 -3 -52 30 0
-25 -4 -52 30 0
-26 -1 -49 30 0
-26 -2 -49 30 0
-26 -3 -49 30 0
-26 -4 -49 30 0
-26 -1 -50 30 0
-26 -2 -50 31 0
-26 -3 -50 31 0
-26 -4 -50 31 0
-26 -1 -51 30 0
-26 -2 -51 31 0
-26 -3 -51 31 0
-26 -4 -51 31 0
-26 -1 -52 30 0
-26 -2 -52 31 0
-26 -3 -52 31 0
-26 -4 -52 31 0
-27 -1 -49 30 0
-27 -2 -49 30 0
-27 -3 -49 30 0
-27 -4 -49 30 0
-27 -1 -50 30 0
-27 -2 -50 31 0
-27 -3 -50 31 0
-27 -4 -50 31 0
-27 -1 -51 30 0
-27 -2 -51 31 0
-27 -3 -51 32 0
-27 -4 -51 32 0
-27 -1 -52 30 0
-27 -2 -52 31 0
-27 -3 -52 32 0
-27 -4 -52 32 0
-28 -1 -49 30 0
-28 -2 -49 30 0
-28 -3 -49 30 0
-28 -4 -49 30 0
-28 -1 -50 30 0
-28 -2 -50 31 0
-28 -3 -50 31 0
-28 -4 -50 31 0
-28 -1 -51 30 0
-28 -2 -51 31 0
-28 -3 -51 32 0
-28 -4 -51 32 0
-28 -1 -52 30 0
-28 -2 -52 31 0
-28 -3 -52 32 0
-28 -4 -52 29 0
-49 -25 -73 54 0
-49 -26 -73 54 0
-49 -27 -73 54 0
-49 -28 -73 54 0
-49 -25 -74 54 0
-49 -26 -74 54 0
-49 -27 -74 54 0
-49 -28 -74 54 0
-49 -25 -75 54 0
-49 -26 -75 54 0
-49 -27 -75 54 0
-49 -28 -75 54 0
-49 -25 -76 54 0
-49 -26 -76 54 0
-49 -27 -76 54 0
-49 -28 -76 54 0
-50 -25 -73 54 0
-50 -26 -73 54 0
-50 -27 -73 54 0
-50 -28 -73 54 0
-50 -25 -74 54 0
-50 -26 -74 55 0
-50 -27 -74 55 0
-50 -28 -74 55 0
-50 -25 -75 54 0
-50 -26 -75 55 0
-50 -27 -75 55 0
-50 -28 -75 55 0
-50 -25 -76 54 0
-50 -26 -76 55 0
-50 -27 -76 55 0
-50 -28 -76 55 0
-51 -25 -73 54 0
-51 -26 -73 54 0
-51 -27 -73 54 0
-51 -28 -73 54 0
-51 -25 -74 54 0
-51 -26 -74 55 0
-51 -27 -74 55 0
-51 -28 -74 55 0
-51 -25 -75 54 0
-51 -26 -75 55 0
-51 -27 -75 56 0
-51 -28 -75 56 0
-51 -25 -76 54 0
-51 -26 -76 55 0
-51 -27 -76 56 0
-51 -28 -76 56 0
-52 -25 -73 54 0
-52 -26 -73 54 0
-52 -27 -73 54 0
-52 -28 -73 54 0
-52 -25 -74 54 0
-52 -26 -74 55 0
-52 -27 -74 55 0
-52 -28 -74 55 0
-52 -25 -75 54 0
-52 -26 -75 55 0
-52 -27 -75 56 0
-52 -28 -75 56 0
-52 -25 -76 54 0
-52 -26 -76 55 0
-52 -27 -76 56 0
-52 -28 -76 53 0
-73 -1 -49 78 0
-73 -2 -49 78 0
-73 -3 -49 78 0
-73 -4 -49 78 0
-73 -1 -50 78 0
-73 -2 -50 78 0
-73 -3 -50 78 0
-73 -4 -50 78 0
-73 -1 -51 78 0
-73 -2 -51 78 0
-73 -3 -51 78 0
-73 -4 -51 78 0
-73 -1 -52 78 0
-73 -2 -52 78 0
-73 -3 -52 78 0
-73 -4 -52 78 0
-74 -1 -49 78 0
-74 -2 -49 78 0
-74 -3 -49 78 0
-74 -4 -49 78 0
-74 -1 -50 78 0
-74 -2 -50 79 0
-74 -3 -50 79 0
-74 -4 -50 79 0
-74 -1 -51 78 0
-74 -2 -51 79 0
-74 -3 -51 79 0
-74 -4 -51 79 0
-74 -1 -52 78 0
-74 -2 -52 79 0
-74 -3 -52 79 0
-74 -4 -52 79 0
-75 -1 -49 78 0
-75 -2 -49 78 0
-75 -3 -49 78 0
-75 -4 -49 78 0
-75 -1 -50 78 0
-75 -2 -50 79 0
-75 -3 -50 79 0
-75 -4 -50 79 0
-75 -1 -51 78 0
-75 -2 -51 79 0
-75 -3 -51 80 0
-75 -4 -51 80 0
-75 -1 -52 78 0
-75 -2 -52 79 0
-75 -3 -52 80 0
-75 -4 -52 80 0
-76 -1 -49 78 0
-76 -2 -49 78 0
-76 -3 -49 78 0
-76 -4 -49 78 0
-76 -1 -50 78 0
-76 -2 -50 79 0
-76 -3 -50 79 0
-76 -4 -50 79 0
-76 -1 -51 78 0
-76 -2 -51 79 0
-76 -3 -51 80 0
-76 -4 -51 80 0
-76 -1 -52 78 0
-76 -2 -52 79 0
-76 -3 -52 80 0
-76 -4 -52 77 0
-5 -29 -77 10 0
-5 -30 -77 10 0
-5 -31 -77 10 0
-5 -32 -77 10 0
-5 -29 -78 10 0
-5 -30 -78 10 0
-5 -31 -78 10 0
-5 -32 -78 10 0
-5 -29 -79 10 0
-5 -30 -79 10 0
-5 -31 -79 10 0
-5 -32 -79 10 0
-5 -29 -80 10 0
-5 -30 -80 10 0
-5 -31 -80 10 0
-5 -32 -80 10 0
-6 -29 -77 10 0
-6 -30 -77 10 0
-6 -31 -77 10 0
-6 -32 -77 10 0
-6 -29 -78 10 0
-6 -30 -78 11 0
-6 -31 -78 11 0
-6 -32 -78 11 0
-6 -29 -79 10 0
-6 -30 -79 11 0
-6 -31 -79 11 0
-6 -32 -79 11 0
-6 -29 -80 10 0
-6 -30 -80 11 0
-6 -31 -80 11 0
-6 -32 -80 11 0
-7 -29 -77 10 0
-7 -30 -77 10 0
-7 -31 -77 10 0
-7 -32 -77 10 0
-7 -29 -78 10 0
-7 -30 -78 11 0
-7 -31 -78 11 0
-7 -32 -78 11 0
-7 -29 -79 10 0
-7 -30 -79 11 0
-7 -31 -79 12 0
-7 -32 -79 12 0
-7 -29 -80 10 0
-7 -30 -80 11 0
-7 -31 -80 12 0
-7 -32 -80 12 0
-8 -29 -77 10 0
-8 -30 -77 10 0
-8 -31 -77 10 0
-8 -32 -77 10 0
-8 -29 -78 10 0
-8 -30 -78 11 0
-8 -31 -78 11 0
-8 -32 -78 11 0
-8 -29 -79 10 0
-8 -30 -79 11 0
-8 -31 -79 12 0
-8 -32 -79 12 0
-8 -29 -80 10 0
-8 -30 -80 11 0
-8 -31 -80 12 0
-8 -32 -80 9 0
-29 -5 -53 34 0
-29 -6 -53 34 0
-29 -7 -53 34 0
-29 -8 -53 34 0
-29 -5 -54 34 0
-29 -6 -54 34 0
-29 -7 -54 34 0
-29 -8 -54 34 0
-29 -5 -55 34 0
-29 -6 -55 34 0
-29 -7 -55 34 0
-29 -8 -55 34 0
-29 -5 -56 34 0
-29 -6 -56 34 0
-29 -7 -56 34 0
-29 -8 -56 34 0
-30 -5 -53 34 0
-30 -6 -53 34 0
-30 -7 -53 34 0
-30 -8 -53 34 0
-30 -5 -54 34 0
-30 -6 -54 35 0
-30 -7 -54 35 0
-30 -8 -54 35 0
-30 -5 -55 34 0
-30 -6 -55 35 0
-30 -7 -55 35 0
-30 -8 -55 35 0
-30 -5 -56 34 0
-30 -6 -56 35 0
-30 -7 -56 35 0
-30 -8 -56 35 0
-31 -5 -53 34 0
-31 -6 -53 34 0
-31 -7 -53 34 0
-31 -8 -53 34 0
-31 -5 -54 34 0
-31 -6 -54 35 0
-31 -7 -54 35 0
-31 -8 -54 35 0
-31 -5 -55 34 0
-31 -6 -55 35 0
-31 -7 -55 36 0
-31 -8 -55 36 0
-31 -5 -56 34 0
-31 -6 -56 35 0
-31 -7 -56 36 0
-31 -8 -56 36 0
-32 -5 -53 34 0
-32 -6 -53 34 0
-32 -7 -53 34 0
-32 -8 -53 34 0
-32 -5 -54 34 0
-32 -6 -54 35 0
-32 -7 -54 35 0
-32 -8 -54 35 0
-32 -5 -55 34 0
-32 -6 -55 35 0
-32 -7 -55 36 0
-32 -8 -55 36 0
-32 -5 -56 34 0
-32 -6 -56 35 0
-32 -7 -56 36 0
-32 -8 -56 33 0
-53 -29 -77 58 0
-53 -30 -77 58 0
-53 -31 -77 58 0
-53 -32 -77 58 0
-53 -29 -78 58 0
-53 -30 -78 58 0
-53 -31 -78 58 0
-53 -32 -78 58 0
-53 -29 -79 58 0
-53 -30 -79 58 0
-53 -31 -79 58 0
-53 -32 -79 58 0
-53 -29 -80 58 0
-53 -30 -80 58 0
-53 -31 -80 58 0
-53 -32 -80 58 0
-54 -29 -77 58 0
-54 -30 -77 58 0
-54 -31 -77 58 0
-54 -32 -77 58 0
-54 -29 -78 58 0
-54 -30 -78 59 0
-54 -31 -78 59 0
-54 -32 -78 59 0
-54 -29 -79 58 0
-54 -30 -79 59 0
-54 -31 -79 59 0
-54 -32 -79 59 0
-54 -29 -80 58 0
-54 -30 -80 59 0
-54 -31 -80 59 0
-54 -32 -80 59 0
-55 -29 -77 58 0
-55 -30 -77 58 0
-55 -31 -77 58 0
-55 -32 -77 58 0
-55 -29 -78 58 0
-55 -30 -78 59 0
-55 -31 -78 59 0
-55 -32 -78 59 0
-55 -29 -79 58 0
-55 -30 -79 59 0
-55 -31 -79 60 0
-55 -32 -79 60 0
-55 -29 -80 58 0
-55 -30 -80 59 0
-55 -31 -80 60 0
-55 -32 -80 60 0
-56 -29 -77 58 0
-56 -30 -77 58 0
-56 -31 -77 58 0
-56 -32 -77 58 0
-56 -29 -78 58 0
-56 -30 -78 59 0
-56 -31 -78 59 0
-56 -32 -78 59 0
-56 -29 -79 58 0
-56 -30 -79 59 0
-56 -31 -79 60 0
-56 -32 -79 60 0
-56 -29 -80 58 0
-56 -30 -80 59 0
-56 -31 -80 60 0
-56 -32 -80 57 0
-77 -5 -53 82 0
-77 -6 -53 82 0
-77 -7 -53 82 0
-77 -8 -53 82 0
-77 -5 -54 82 0
-77 -6 -54 82 0
-77 -7 -54 82 0
-77 -8 -54 82 0
-77 -5 -55 82 0
-77 -6 -55 82 0
-77 -7 -55 82 0
-77 -8 -55 82 0
-77 -5 -56 82 0
-77 -6 -56 82 0
-77 -7 -56 82 0
-77 -8 -56 82 0
-78 -5 -53 82 0
-78 -6 -53 82 0
-78 -7 -53 82 0
-78 -8 -53 82 0
-78 -5 -54 82 0
-78 -6 -54 83 0
-78 -7 -54 83 0
-78 -8 -54 83 0
-78 -5 -55 82 0
-78 -6 -55 83 0
-78 -7 -55 83 0
-78 -8 -55 83 0
-78 -5 -56 82 0
-78 -6 -56 83 0
-78 -7 -56 83 0
-78 -8 -56 83 0
-79 -5 -53 82 0
-79 -6 -53 82 0
-79 -7 -53 82 0
-79 -8 -53 82 0
-79 -5 -54 82 0
-79 -6 -54 83 0
-79 -7 -54 83 0
-79 -8 -54 83 0
-79 -5 -55 82 0
-79 -6 -55 83 0
-79 -7 -55 84 0
-79 -8 -55 84 0
-79 -5 -56 82 0
-79 -6 -56 83 0
-79 -7 -56 84 0
-79 -8 -56 84 0
-80 -5 -53 82 0
-80 -6 -53 82 0
-80 -7 -53 82 0
-80 -8 -53 82 0
-80 -5 -54 82 0
-80 -6 -54 83 0
-80 -7 -54 83 0
-80 -8 -54 83 0
-80 -5 -55 82 0
-80 -6 -55 83 0
-80 -7 -55 84 0
-80 -8 -55 84 0
-80 -5 -56 82 0
-80 -6 -56 83 0
-80 -7 -56 84 0
-80 -8 -56 81 0
-9 -33 -81 14 0
-9 -34 -81 14 0
-9 -35 -81 14 0
-9 -36 -81 14 0
-9 -33 -82 14 0
-9 -34 -82 14 0
-9 -35 -82 14 0
-9 -36 -82 14 0
-9 -33 -83 14 0
-9 -34 -83 14 0
-9 -35 -83 14 0
-9 -36 -83 14 0
-9 -33 -84 14 0
-9 -34 -84 14 0
-9 -35 -84 14 0
-9 -36 -84 14 0
-10 -33 -81 14 0
-10 -34 -81 14 0
-10 -35 -81 14 0
-10 -36 -81 14 0
-10 -33 -82 14 0
-10 -34 -82 15 0
-10 -35 -82 15 0
-10 -36 -82 15 0
-10 -33 -83 14 0
-10 -34 -83 15 0
-10 -35 -83 15 0
-10 -36 -83 15 0
-10 -33 -84 14 0
-10 -34 -84 15 0
-10 -35 -84 15 0
-10 -36 -84 15 0
-11 -33 -81 14 0
-11 -34 -81 14 0
-11 -35 -81 14 0
-11 -36 -81 14 0
-11 -33 -82 14 0
-11 -34 -82 15 0
-11 -35 -82 15 0
-11 -36 -82 15 0
-11 -33 -83 14 0
-11 -34 -83 15 0
-11 -35 -83 16 0
-11 -36 -83 16 0
-11 -33 -84 14 0
-11 -34 -84 15 0
-11 -35 -84 16 0
-11 -36 -84 16 0
-12 -33 -81 14 0
-12 -34 -81 14 0
-12 -35 -81 14 0
-12 -36 -81 14 0
-12 -33 -82 14 0
-12 -34 -82 15 0
-12 -35 -82 15 0
-12 -36 -82 15 0
-12 -33 -83 14 0
-12 -34 -83 15 0
-12 -35 -83 16 0
-12 -36 -83 16 0
-12 -33 -84 14 0
-12 -34 -84 15 0
-12 -35 -84 16 0
-12 -36 -84 13 0
-33 -9 -57 38 0
-33 -10 -57 38 0
-33 -11 -57 38 0
-33 -12 -57 38 0
-33 -9 -58 38 0
-33 -10 -58 38 0
-33 -11 -58 38 0
-33 -12 -58 38 0
-33 -9 -59 38 0
-33 -10 -59 38 0
-33 -11 -59 38 0
-33 -12 -59 38 0
-33 -9 -60 38 0
-33 -10 -60 38 0
-33 -11 -60 38 0
-33 -12 -60 38 0
-34 -9 -57 38 0
-34 -10 -57 38 0
-34 -11 -57 38 0
-34 -12 -57 38 0
-34 -9 -58 38 0
-34 -10 -58 39 0
-34 -11 -58 39 0
-34 -12 -58 39 0
-34 -9 -59 38 0
-34 -10 -59 39 0
-34 -11 -59 39 0
-34 -12 -59 39 0
-34 -9 -60 38 0
-34 -10 -60 39 0
-34 -11 -60 39 0
-34 -12 -60 39 0
-35 -9 -57 38 0
-35 -10 -57 38 0
-35 -11 -57 38 0
-35 -12 -57 38 0
-35 -9 -58 38 0
-35 -10 -58 39 0
-35 -11 -58 39 0
-35 -12 -58 39 0
-35 -9 -59 38 0
-35 -10 -59 39 0
-35 -11 -59 40 0
-35 -12 -59 40 0
-35 -9 -60 38 0
-35 -10 -60 39 0
-35 -11 -60 40 0
-35 -12 -60 40 0
-36 -9 -57 38 0
-36 -10 -57 38 0
-36 -11 -57 38 0
-36 -12 -57 38 0
-36 -9 -58 38 0
-36 -10 -58 39 0
-36 -11 -58 39 0
-36 -12 -58 39 0
-36 -9 -59 38 0
-36 -10 -59 39 0
-36 -11 -59 40 0
-36 -12 -59 40 0
-36 -9 -60 38 0
-36 -10 -60 39 0
-36 -11 -60 40 0
-36 -12 -60 37 0
-57 -33 -81 62 0
-57 -34 -81 62 0
-57 -35 -81 62 0
-57 -36 -81 62 0
-57 -33 -82 62 0
-57 -34 -82 62 0
-57 -35 -82 62 0
-57 -36 -82 62 0
-57 -33 -83 62 0
-57 -34 -83 62 0
-57 -35 -83 62 0
-57 -36 -83 62 0
-57 -33 -84 62 0
-57 -34 -84 62 0
-57 -35 -84 62 0
-57 -36 -84 62 0
-58 -33 -81 62 0
-58 -34 -81 62 0
-58 -35 -81 62 0
-58 -36 -81 62 0
-58 -33 -82 62 0
-58 -34 -82 63 0
-58 -35 -82 63 0
-58 -36 -82 63 0
-58 -33 -83 62 0
-58 -34 -83 63 0
-58 -35 -83 63 0
-58 -36 -83 63 0
-58 -33 -84 62 0
-58 -34 -84 63 0
-58 -35 -84 63 0
-58 -36 -84 63 0
-59 -33 -81 62 0
-59 -34 -81 62 0
-59 -35 -81 62 0
-59 -36 -81 62 0
-59 -33 -82 62 0
-59 -34 -82 63 0
-59 -35 -82 63 0
-59 -36 -82 63 0
-59 -33 -83 62 0
-59 -34 -83 63 0
-59 -35 -83 64 0
-59 -36 -83 64 0
-59 -33 -84 62 0
-59 -34 -84 63 0
-59 -35 -84 64 0
-59 -36 -84 64 0
-60 -33 -81 62 0
-60 -34 -81 62 0
-60 -35 -81 62 0
-60 -36 -81 62 0
-60 -33 -82 62 0
-60 -34 -82 63 0
-60 -35 -82 63 0
-60 -36 -82 63 0
-60 -33 -83 62 0
-60 -34 -83 63 0
-60 -35 -83 64 0
-60 -36 -83 64 0
-60 -33 -84 62 0
-60 -34 -84 63 0
-60 -35 -84 64 0
-60 -36 -84 61 0
-81 -9 -57 86 0
-81 -10 -57 86 0
-81 -11 -57 86 0
-81 -12 -57 86 0
-81 -9 -58 86 0
-81 -10 -58 86 0
-81 -11 -58 86 0
-81 -12 -58 86 0
-81 -9 -59 86 0
-81 -10 -59 86 0
-81 -11 -59 86 0
-81 -12 -59 86 0
-81 -9 -60 86 0
-81 -10 -60 86 0
-81 -11 -60 86 0
-81 -12 -60 86 0
-82 -9 -57 86 0
-82 -10 -57 86 0
-82 -11 -57 86 0
-82 -12 -57 86 0
-82 -9 -58 86 0
-82 -10 -58 87 0
-82 -11 -58 87 0
-82 -12 -58 87 0
-82 -9 -59 86 0
-82 -10 -59 87 0
-82 -11 -59 87 0
-82 -12 -59 87 0
-82 -9 -60 86 0
-82 -10 -60 87 0
-82 -11 -60 87 0
-82 -12 -60 87 0
-83 -9 -57 86 0
-83 -10 -57 86 0
-83 -11 -57 86 0
-83 -12 -57 86 0
-83 -9 -58 86 0
-83 -10 -58 87 0
-83 -11 -58 87 0
-83 -12 -58 87 0
-83 -9 -59 86 0
-83 -10 -59 87 0
-83 -11 -59 88 0
-83 -12 -59 88 0
-83 -9 -60 86 0
-83 -10 -60 87 0
-83 -11 -60 88 0
-83 -12 -60 88 0
-84 -9 -57 86 0
-84 -10 -57 86 0
-84 -11 -57 86 0
-84 -12 -57 86 0
-84 -9 -58 86 0
-84 -10 -58 87 0
-84 -11 -58 87 0
-84 -12 -58 87 0
-84 -9 -59 86 0
-84 -10 -59 87 0
-84 -11 -59 88 0
-84 -12 -59 88 0
-84 -9 -60 86 0
-84 -10 -60 87 0
-84 -11 -60 88 0
-84 -12 -60 85 0
-13 -37 -85 18 0
-13 -38 -85 18 0
-13 -39 -85 18 0
-13 -40 -85 18 0
-13 -37 -86 18 0
-13 -38 -86 18 0
-13 -39 -86 18 0
-13 -40 -86 18 0
-13 -37 -87 18 0
-13 -38 -87 18 0
-13 -39 -87 18 0
-13 -40 -87 18 0
-13 -37 -88 18 0
-13 -38 -88 18 0
-13 -39 -88 18 0
-13 -40 -88 18 0
-14 -37 -85 18 0
-14 -38 -85 18 0
-14 -39 -85 18 0
-14 -40 -85 18 0
-14 -37 -86 18 0
-14 -38 -86 19 0
-14 -39 -86 19 0
-14 -40 -86 19 0
-14 -37 -87 18 0
-14 -38 -87 19 0
-14 -39 -87 19 0
-14 -40 -87 19 0
-14 -37 -88 18 0
-14 -38 -88 19 0
-14 -39 -88 19 0
-14 -40 -88 19 0
-15 -37 -85 18 0
-15 -38 -85 18 0
-15 -39 -85 18 0
-15 -40 -85 18 0
-15 -37 -86 18 0
-15 -38 -86 19 0
-15 -39 -86 19 0
-15 -40 -86 19 0
-15 -37 -87 18 0
-15 -38 -87 19 0
-15 -39 -87 20 0
-15 -40 -87 20 0
-15 -37 -88 18 0
-15 -38 -88 19 0
-15 -39 -88 20 0
-15 -40 -88 20 0
-16 -37 -85 18 0
-16 -38 -85 18 0
-16 -39 -85 18 0
-16 -40 -85 18 0
-16 -37 -86 18 0
-16 -38 -86 19 0
-16 -39 -86 19 0
-16 -40 -86 19 0
-16 -37 -87 18 0
-16 -38 -87 19 0
-16 -39 -87 20 0
-16 -40 -87 20 0
-16 -37 -88 18 0
-16 -38 -88 19 0
-16 -39 -88 20 0
-16 -40 -88 17 0
-37 -13 -61 42 0
-37 -14 -61 42 0
-37 -15 -61 42 0
-37 -16 -61 42 0
-37 -13 -62 42 0
-37 -14 -62 42 0
-37 -15 -62 42 0
-37 -16 -62 42 0
-37 -13 -63 42 0
-37 -14 -63 42 0
-37 -15 -63 42 0
-37 -16 -63 42 0
-37 -13 -64 42 0
-37 -14 -64 42 0
-37 -15 -64 42 0
-37 -16 -64 42 0
-38 -13 -61 42 0
-38 -14 -61 42 0
-38 -15 -61 42 0
-38 -16 -61 42 0
-38 -13 -62 42 0
-38 -14 -62 43 0
-38 -15 -62 43 0
-38 -16 -62 43 0
-38 -13 -63 42 0
-38 -14 -63 43 0
-38 -15 -63 43 0
-38 -16 -63 43 0
-38 -13 -64 42 0
-38 -14 -64 43 0
-38 -15 -64 43 0
-38 -16 -64 43 0
-39 -13 -61 42 0
-39 -14 -61 42 0
-39 -15 -61 42 0
-39 -16 -61 42 0
-39 -13 -62 42 0
-39 -14 -62 43 0
-39 -15 -62 43 0
-39 -16 -62 43 0
-39 -13 -63 42 0
-39 -14 -63 43 0
-39 -15 -63 44 0
-39 -16 -63 44 0
-39 -13 -64 42 0
-39 -14 -64 43 0
-39 -15 -64 44 0
-39 -16 -64 44 0
-40 -13 -61 42 0
-40 -14 -61 42 0
-40 -15 -61 42 0
-40 -16 -61 42 0
-40 -13 -62 42 0
-40 -14 -62 43 0
-40 -15 -62 43 0
-40 -16 -62 43 0
-40 -13 -63 42 0
-40 -14 -63 43 0
-40 -15 -63 44 0
-40 -16 -63 44 0
-40 -13 -64 42 0
-40 -14 -64 43 0
-40 -15 -64 44 0
-40 -16 -64 41 0
-61 -37 -85 66 0
-61 -38 -85 66 0
-61 -39 -85 66 0
-61 -40 -85 66 0
-61 -37 -86 66 0
-61 -38 -86 66 0
-61 -39 -86 66 0
-61 -40 -86 66 0
-61 -37 -87 66 0
-61 -38 -87 66 0
-61 -39 -87 66 0
-61 -40 -87 66 0
-61 -37 -88 66 0
-61 -38 -88 66 0
-61 -39 -88 66 0
-61 -40 -88 66 0
-62 -37 -85 66 0
-62 -38 -85 66 0
-62 -39 -85 66 0
-62 -40 -85 66 0
-62 -37 -86 66 0
-62 -38 -86 67 0
-62 -39 -86 67 0
-62 -40 -86 67 0
-62 -37 -87 66 0
-62 -38 -87 67 0
-62 -39 -87 67 0
-62 -40 -87 67 0
-62 -37 -88 66 0
-62 -38 -88 67 0
-62 -39 -88 67 0
-62 -40 -88 67 0
-63 -37 -85 66 0
-63 -38 -85 66 0
-63 -39 -85 66 0
-63 -40 -85 66 0
-63 -37 -86 66 0
-63 -38 -86 67 0
-63 -39 -86 67 0
-63 -40 -86 67 0
-63 -37 -87 66 0
-63 -38 -87 67 0
-63 -39 -87 68 0
-63 -40 -87 68 0
-63 -37 -88 66 0
-63 -38 -88 67 0
-63 -39 -88 68 0
-63 -40 -88 68 0
-64 -37 -85 66 0
-64 -38 -85 66 0
-64 -39 -85 66 0
-64 -40 -85 66 0
-64 -37 -86 66 0
-64 -38 -86 67 0
-64 -39 -86 67 0
-64 -40 -86 67 0
-64 -37 -87 66 0
-64 -38 -87 67 0
-64 -39 -87 68 0
-64 -40 -87 68 0
-64 -37 -88 66 0
-64 -38 -88 67 0
-64 -39 -88 68 0
-64 -40 -88 65 0
-85 -13 -61 90 0
-85 -14 -61 90 0
-85 -15 -61 90 0
-85 -16 -61 90 0
-85 -13 -62 90 0
-85 -14 -62 90 0
-85 -15 -62 90 0
-85 -16 -62 90 0
-85 -13 -63 90 0
-85 -14 -63 90 0
-85 -15 -63 90 0
-85 -16 -63 90 0
-85 -13 -64 90 0
-85 -14 -64 90 0
-85 -15 -64 90 0
-85 -16 -64 90 0
-86 -13 -61 90 0
-86 -14 -61 90 0
-86 -15 -61 90 0
-86 -16 -61 90 0
-86 -13 -62 90 0
-86 -14 -62 91 0
-86 -15 -62 91 0
-86 -16 -62 91 0
-86 -13 -63 90 0
-86 -14 -63 91 0
-86 -15 -63 91 0
-86 -16 -63 91 0
-86 -13 -64 90 0
-86 -14 -64 91 0
-86 -15 -64 91 0
-86 -16 -64 91 0
-87 -13 -61 90 0
-87 -14 -61 90 0
-87 -15 -61 90 0
-87 -16 -61 90 0
-87 -13 -62 90 0
-87 -14 -62 91 0
-87 -15 -62 91 0
-87 -16 -62 91 0
-87 -13 -63 90 0
-87 -14 -63 91 0
-87 -15 -63 92 0
-87 -16 -63 92 0
-87 -13 -64 90 0
-87 -14 -64 91 0
-87 -15 -64 92 0
-87 -16 -64 92 0
-88 -13 -61 90 0
-88 -14 -61 90 0
-88 -15 -61 90 0
-88 -16 -61 90 0
-88 -13 -62 90 0
-88 -14 -62 91 0
-88 -15 -62 91 0
-88 -16 -62 91 0
-88 -13 -63 90 0
-88 -14 -63 91 0
-88 -15 -63 92 0
-88 -16 -63 92 0
-88 -13 -64 90 0
-88 -14 -64 91 0
-88 -15 -64 92 0
-88 -16 -64 89 0
-17 -41 -89 22 0
-17 -42 -89 22 0
-17 -43 -89 22 0
-17 -44 -89 22 0
-17 -41 -90 22 0
-17 -42 -90 22 0
-17 -43 -90 22 0
-17 -44 -90 22 0
-17 -41 -91 22 0
-17 -42 -91 22 0
-17 -43 -91 22 0
-17 -44 -91 22 0
-17 -41 -92 22 0
-17 -42 -92 22 0
-17 -43 -92 22 0
-17 -44 -92 22 0
-18 -41 -89 22 0
-18 -42 -89 22 0
-18 -43 -89 22 0
-18 -44 -89 22 0
-18 -41 -90 22 0
-18 -42 -90 23 0
-18 -43 -90 23 0
-18 -44 -90 23 0
-18 -41 -91 22 0
-18 -42 -91 23 0
-18 -43 -91 23 0
-18 -44 -91 23 0
-18 -41 -92 22 0
-18 -42 -92 23 0
-18 -43 -92 23 0
-18 -44 -92 23 0
-19 -41 -89 22 0
-19 -42 -89 22 0
-19 -43 -89 22 0
-19 -44 -89 22 0
-19 -41 -90 22 0
-19 -42 -90 23 0
-19 -43 -90 23 0
-19 -44 -90 23 0
-19 -41 -91 22 0
-19 -42 -91 23 0
-19 -43 -91 24 0
-19 -44 -91 24 0
-19 -41 -92 22 0
-19 -42 -92 23 0
-19 -43 -92 24 0
-19 -44 -92 24 0
-20 -41 -89 22 0
-20 -42 -89 22 0
-20 -43 -89 22 0
-20 -44 -89 22 0
-20 -41 -90 22 0
-20 -42 -90 23 0
-20 -43 -90 23 0
-20 -44 -90 23 0
-20 -41 -91 22 0
-20 -42 -91 23 0
-20 -43 -91 24 0
-20 -44 -91 24 0
-20 -41 -92 22 0
-20 -42 -92 23 0
-20 -43 -92 24 0
-20 -44 -92 21 0
-41 -17 -65 46 0
-41 -18 -65 46 0
-41 -19 -65 46 0
-41 -20 -65 46 0
-41 -17 -66 46 0
-41 -18 -66 46 0
-41 -19 -66 46 0
-41 -20 -66 46 0
-41 -17 -67 46 0
-41 -18 -67 46 0
-41 -19 -67 46 0
-41 -20 -67 46 0
-41 -17 -68 46 0
-41 -18 -68 46 0
-41 -19 -68 46 0
-41 -20 -68 46 0
-42 -17 -65 46 0
-42 -18 -65 46 0
-42 -19 -65 46 0
-42 -20 -65 46 0
-42 -17 -66 46 0
-42 -18 -66 47 0
-42 -19 -66 47 0
-42 -20 -66 47 0
-42 -17 -67 46 0
-42 -18 -67 47 0
-42 -19 -67 47 0
-42 -20 -67 47 0
-42 -17 -68 46 0
-42 -18 -68 47 0
-42 -19 -68 47 0
-42 -20 -68 47 0
-43 -17 -65 46 0
-43 -18 -65 46 0
-43 -19 -65 46 0
-43 -20 -65 46 0
-43 -17 -66 46 0
-43 -18 -66 47 0
-43 -19 -66 47 0
-43 -20 -66 47 0
-43 -17 -67 46 0
-43 -18 -67 47 0
-43 -19 -67 48 0
-43 -20 -67 48 0
-43 -17 -68 46 0
-43 -18 -68 47 0
-43 -19 -68 48 0
-43 -20 -68 48 0
-44 -17 -65 46 0
-44 -18 -65 46 0
-44 -19 -65 46 0
-44 -20 -65 46 0
-44 -17 -66 46 0
-44 -18 -66 47 0
-44 -19 -66 47 0
-44 -20 -66 47 0
-44 -17 -67 46 0
-44 -18 -67 47 0
-44 -19 -67 48 0
-44 -20 -67 48 0
-44 -17 -68 46 0
-44 -18 -68 47 0
-44 -19 -68 48 0
-44 -20 -68 45 0
-65 -41 -89 70 0
-65 -42 -89 70 0
-65 -43 -89 70 0
-65 -44 -89 70 0
-65 -41 -90 70 0
-65 -42 -90 70 0
-65 -43 -90 70 0
-65 -44 -90 70 0
-65 -41 -91 70 0
-65 -42 -91 70 0
-65 -43 -91 70 0
-65 -44 -91 70 0
-65 -41 -92 70 0
-65 -42 -92 70 0
-65 -43 -92 70 0
-65 -44 -92 70 0
-66 -41 -89 70 0
-66 -42 -89 70 0
-66 -43 -89 70 0
-66 -44 -89 70 0
-66 -41 -90 70 0
-66 -42 -90 71 0
-66 -43 -90 71 0
-66 -44 -90 71 0
-66 -41 -91 70 0
-66 -42 -91 71 0
-66 -43 -91 71 0
-66 -44 -91 71 0
-66 -41 -92 70 0
-66 -42 -92 71 0
-66 -43 -92 71 0
-66 -44 -92 71 0
-67 -41 -89 70 0
-67 -42 -89 70 0
-67 -43 -89 70 0
-67 -44 -89 70 0
-67 -41 -90 70 0
-67 -42 -90 71 0
-67 -43 -90 71 0
-67 -44 -90 71 0
-67 -41 -91 70 0
-67 -42 -91 71 0
-67 -43 -91 72 0
-67 -44 -91 72 0
-67 -41 -92 70 0
-67 -42 -92 71 0
-67 -43 -92 72 0
-67 -44 -92 72 0
-68 -41 -89 70 0
-68 -42 -89 70 0
-68 -43 -89 70 0
-68 -44 -89 70 0
-68 -41 -90 70 0
-68 -42 -90 71 0
-68 -43 -90 71 0
-68 -44 -90 71 0
-68 -41 -91 70 0
-68 -42 -91 71 0
-68 -43 -91 72 0
-68 -44 -91 72 0
-68 -41 -92 70 0
-68 -42 -92 71 0
-68 -43 -92 72 0
-68 -44 -92 69 0
-89 -17 -65 94 0
-89 -18 -65 94 0
-89 -19 -65 94 0
-89 -20 -65 94 0
-89 -17 -66 94 0
-89 -18 -66 94 0
-89 -19 -66 94 0
-89 -20 -66 94 0
-89 -17 -67 94 0
-89 -18 -67 94 0
-89 -19 -67 94 0
-89 -20 -67 94 0
-89 -17 -68 94 0
-89 -18 -68 94 0
-89 -19 -68 94 0
-89 -20 -68 94 0
-90 -17 -65 94 0
-90 -18 -65 94 0
-90 -19 -65 94 0
-90 -20 -65 94 0
-90 -17 -66 94 0
-90 -18 -66 95 0
-90 -19 -66 95 0
-90 -20 -66 95 0
-90 -17 -67 94 0
-90 -18 -67 95 0
-90 -19 -67 95 0
-90 -20 -67 95 0
-90 -17 -68 94 0
-90 -18 -68 95 0
-90 -19 -68 95 0
-90 -20 -68 95 0
-91 -17 -65 94 0
-91 -18 -65 94 0
-91 -19 -65 94 0
-91 -20 -65 94 0
-91 -17 -66 94 0
-91 -18 -66 95 0
-91 -19 -66 95 0
-91 -20 -66 95 0
-91 -17 -67 94 0
-91 -18 -67 95 0
-91 -19 -67 96 0
-91 -20 -67 96 0
-91 -17 -68 94 0
-91 -18 -68 95 0
-91 -19 -68 96 0
-91 -20 -68 96 0
-92 -17 -65 94 0
-92 -18 -65 94 0
-92 -19 -65 94 0
-92 -20 -65 94 0
-92 -17 -66 94 0
-92 -18 -66 95 0
-92 -19 -66 95 0
-92 -20 -66 95 0
-92 -17 -67 94 0
-92 -18 -67 95 0
-92 -19 -67 96 0
-92 -20 -67 96 0
-92 -17 -68 94 0
-92 -18 -68 95 0
-92 -19 -68 96 0
-92 -20 -68 93 0
-21 -45 -69 -93 0
-22 -46 -70 -94 0
-23 -47 -71 -95 0
-24 -48 -72 -96 0
-1 -25 -49 -73 0
-2 -26 -50 -74 0
-3 -27 -51 -75 0
-4 -28 -52 -76 0
-5 -29 -53 -77 0
-6 -30 -54 -78 0
-7 -31 -55 -79 0
-8 -32 -56 -80 0
-9 -33 -57 -81 0
-10 -34 -58 -82 0
-11 -35 -59 -83 0
-12 -36 -60 -84 0
-13 -37 -61 -85 0
-14 -38 -62 -86 0
-15 -39 -63 -87 0
-16 -40 -64 -88 0
-17 -41 -65 -89 0
-18 -42 -66 -90 0
-19 -43 -67 -91 0
-20 -44 -68 -92 0
